/*********************************************
 * OPL 20.1.0.0 Data
 * Author: chokrihamza
 * Creation Date: 29 nov. 2021 at 16:42:52
 *********************************************/
supp_region=5;
dem_region=5;
fixcost=[9000,6750,9750,6150,6000];
capacity=[20,20,20,20,20];
demand=[12,8,14,16,7];
transp_cost=[[81,92,101,130,115],[117,77,108,98,100],[102,105,95,19,111],[115,125,90,59,74],
			 [142,100,103,105,71]];